8420
42, 2, 7, 17, 3, 45, 41, 19, 8, 9, 10, 33, 43, 4, 12, 51, 11, 52, 14, 13, 47, 26, 27, 28, 25, 6, 15, 5, 24, 48, 38, 39, 40, 37, 46, 50, 20, 23, 21, 31, 18, 1, 22, 32, 49, 36, 35, 34, 44, 16, 29, 30
